instances/shortest_path/discrete_knapsack_uncertainty/nohadani_8_1.kp
27383
205

[1.9016063105204852 3.8267686922399307 0.19857729834527316 1.6890484665039929 3.706410497083159 0.9843094879350264 1.289848350932448 3.204511670430102 0.5208877744169962 3.593320399708177 0.18634452339640906 3.0996012767181536 1.1760092575209775 0.6426824106507053 1.8243553248265323 3.7693976850643716 3.894643875439194 0.5545596645059586 1.882473296510599 0.6735234042754039 3.5251208326908667 4.020013441596007 0.7498516326539315 0.2738396382289135 2.8081984705652623 1.1586638774341975 0.9372026473919033 4.44770661851272 1.0559677052056655 1.0688119954561357 3.8873962741019685 2.1279592225035566 1.4079394430408139 1.776944918809068 2.2494763659709776 3.916125532479517 1.0872529383672904 3.7501485955506264 3.9380304588504838 0.5348675947266021 3.175568457103552 2.032086151226005 0.40480196149225395 0.6512028084603606 0.07392120825166297 3.4588420293908326]

[48 5 75 16 77 14 70 28 6 87 56 8 29 69 29 13 14 61 94 83 86 20 85 95 41 81 59 32 54 96 2 12 68 22 9 6 97 73 21 35 60 86 23 42 96 79]
